p tdp 40 77
8 19
13 40
7 27
32 33
9 38
20 29
12 15
22 28
31 39
9 23
36 38
18 31
6 40
11 31
16 21
12 28
4 16
29 34
1 17
34 39
14 27
1 3
23 30
18 35
8 29
37 40
14 30
15 32
25 26
10 15
2 3
6 21
21 33
5 24
26 34
29 30
5 17
15 36
1 4
25 29
15 19
21 37
12 13
27 36
19 39
5 32
14 36
16 31
21 35
13 29
14 39
10 14
9 16
13 26
11 40
14 22
35 36
19 25
4 33
2 14
14 23
7 37
1 12
21 28
1 10
2 13
15 38
7 16
31 35
26 36
12 32
18 19
11 15
14 37
7 25
18 30
13 30
